
# PYTHONPATH must include directory above plugin directory.
#     Define either externally or here, then import plugin.
sys.path.insert(0, './..')
import psi4_gamess_efp

molecule {
N    3.5438524464        2.3203890756        0.6793824427
H    3.0684312573        3.0104729663       -0.9890624524
H    5.4211936135        2.5574601073        0.8114306844
H    2.8590134498        3.6437006142        1.8513012349
units bohr
symmetry c1
no_reorient
no_com
}

set {
  basis aug-cc-pVDZ
  print 3
  df_scf_guess false
  scf_type pk
  d_convergence 10
  gamess_output_file gamess.out
}


scf_helper('hf')
mints = psi4.MintsHelper()
#mints.integrals()
plugin("./psi4_gamess_efp.so")
psi4.transqt2()
#dip = mints.so_dipole()
#mat = dip[0]
#mat.print_out()
#print("DONE")
oe = OEProp()
oe.add("DIPOLE")
oe.compute()
