
# PYTHONPATH must include directory above plugin directory.
#     Define either externally or here, then import plugin.
sys.path.insert(0, './..')
import mos

molecule {
symmetry c1
N  1.8753260893   1.2278971082   0.3595137322
H  1.6237440122   1.5930738032  -0.5233893479
H  2.8687723240   1.3533497046   0.4293906575
H  1.5129248729   1.9281634681   0.9796664950
}

set {
  basis aug-cc-pVDZ
}

set mos {
  print 1
}

energy('scf')
plugin("./mos.so")

