 $CONTRL ispher=1 scftyp=rhf nprint=3 $end
 $basis gbasis=accd $end
 $scf dirscf=.t. $end
 $system memory=10000000 $end
 $DATA
 
 C1
 N           7.0   1.8753260893   1.2278971082   0.3595137322
 H           1.0   1.6237440122   1.5930738032  -0.5233893479
 H           1.0   2.8687723240   1.3533497046   0.4293906575
 H           1.0   1.5129248729   1.9281634681   0.9796664950
 $END
