 $CONTRL ispher=1 scftyp=rhf nprint=3 $end
 $basis gbasis=sto ngauss=3 $end
 $scf dirscf=.t. $end
 $system memory=10000000 $end
 $DATA
 
 C1
 N           7.0   1.8753260893   1.2278971082   0.3595137322
 H           1.0   1.6237440122   1.5930738032  -0.5233893479
 H           1.0   2.8687723240   1.3533497046   0.4293906575
 H           1.0   1.5129248729   1.9281634681   0.9796664950
 $END
 $EFRAG
 coord=cart
 FRAGNAME=H2ORHF  !   1
 ZO1                3.517294437373   -2.887816914827   -5.886557841379
 ZH2                4.367786677780   -3.054547867261   -6.260378911632
 ZH3                3.664563399044   -2.474278189587   -5.050988556573
 FRAGNAME=H2ORHF  !   2
 ZO1                1.877062296430   -0.202351099550   -7.558092322248
 ZH2                2.676142020815   -0.604157605919   -7.256593434069
 ZH3                1.405485138706   -0.863680487976   -8.038859291137
 FRAGNAME=H2ORHF  !   3
 ZO1                2.619165753122    1.965790289407   -5.741904128947
 ZH2                1.981156750465    1.651297679741   -6.362321218559
 ZH3                2.303200236949    1.729457044419   -4.884471423721
 FRAGNAME=H2ORHF  !   4
 ZO1                1.049257929564   -2.320339101797   -1.490326206959
 ZH2                0.210464267210   -2.047610349225   -1.826365897430
 ZH3                1.060038502346   -2.096360659539   -0.573486040566
 FRAGNAME=H2ORHF  !   5
 ZO1                3.606151058277   -1.441701420204   -3.507624530972
 ZH2                4.087399982368   -0.698276572075   -3.181131924148
 ZH3                3.184768292956   -1.840345095905   -2.763045294773
 FRAGNAME=H2ORHF  !   6
 ZO1                0.744909362801    3.352365519881    5.864021847575
 ZH2                1.662363511476    3.268653919336    5.658720344704
 ZH3                0.313775401590    2.599952415991    5.491360496409
 FRAGNAME=H2ORHF  !   7
 ZO1                1.323846271910   -4.606643028900   -6.600905589997
 ZH2                1.417950501449   -5.038456918443   -5.766903424018
 ZH3                2.008150884592   -3.958379749109   -6.649489241697
 FRAGNAME=H2ORHF  !   8
 ZO1                1.380528524502   -3.758769933521    1.532046764354
 ZH2                1.073071339773   -4.041420159039    2.378484820947
 ZH3                0.730180550370   -4.028264931344    0.903319150227
 FRAGNAME=H2ORHF  !   9
 ZO1               -3.761549596022    0.192570149988   -5.941324421296
 ZH2               -4.496867961943    0.361611830071   -6.508431347005
 ZH3               -4.050798766360    0.372631697693   -5.061102170641
 FRAGNAME=H2ORHF  !  10
 ZO1               -0.587681953462   -0.436204352523   -5.784540729701
 ZH2                0.337291579306   -0.473880394505   -5.968613904290
 ZH3               -1.029594636508   -0.415782955456   -6.618312041974
 FRAGNAME=H2ORHF  !  11
 ZO1                5.651650438009   -0.080442142624    4.381216371365
 ZH2                6.425207104872   -0.620192472692    4.415247510159
 ZH3                5.044488942768   -0.512733275905    3.802115560756
 FRAGNAME=H2ORHF  !  12
 ZO1                1.247594487728   -4.677627986888   -3.465942096027
 ZH2                1.366703343081   -3.756163835838   -3.299823605263
 ZH3                0.570011180702   -4.973671498673   -2.879326757636
 FRAGNAME=H2ORHF  !  13
 ZO1                5.381433808401    0.914606984685   -3.042228697121
 ZH2                4.880942012014    1.525848438952   -3.558726809809
 ZH3                5.522293497887    1.320985922362   -2.202054214668
 FRAGNAME=H2ORHF  !  14
 ZO1               -5.206631995114    0.216829194435   -3.232680713550
 ZH2               -5.044282577805    0.794879155320   -2.504409223306
 ZH3               -6.104742989122   -0.064435466472   -3.160810782084
 FRAGNAME=H2ORHF  !  15
 ZO1               -0.668790385091    2.212207843855   -4.140627950873
 ZH2               -0.535777939573    1.701221435826   -4.922982751596
 ZH3               -1.601966096129    2.279910106711   -4.016217541339
 FRAGNAME=H2ORHF  !  16
 ZO1               -0.243744367058   -4.966820025583    3.432545254376
 ZH2               -0.375548272645   -4.343944263251    4.129346495212
 ZH3               -1.075287680189   -5.067047157478    2.997380119654
 FRAGNAME=H2ORHF  !  17
 ZO1               -1.366229861068   -6.299870923419   -1.203432219715
 ZH2               -1.443283021213   -7.220183194893   -1.398282386626
 ZH3               -1.856075565327   -5.840247065336   -1.866512568661
 FRAGNAME=H2ORHF  !  18
 ZO1               -5.172567665953    2.191378459186   -0.440696213533
 ZH2               -5.034259655549    1.407985110783    0.067284307751
 ZH3               -4.381843262678    2.702210314709   -0.372255089077
 FRAGNAME=H2ORHF  !  19
 ZO1                0.923562641319    4.943064199810   -3.618050033623
 ZH2                0.480559709099    5.313703933897   -2.871556199999
 ZH3                0.486172471157    4.130741493750   -3.817298909014
 FRAGNAME=H2ORHF  !  20
 ZO1                6.672145753117   -7.599975790940    3.173940623224
 ZH2                6.187945225704   -8.409101402141    3.215702431315
 ZH3                6.079985582228   -6.915354519886    3.441370055592
 FRAGNAME=H2ORHF  !  21
 ZO1                8.549007415604    2.532127109125    0.934902266677
 ZH2                8.387490859230    2.664840389704    0.014479515305
 ZH3                9.058515620367    1.741117817672    1.009629398179
 FRAGNAME=H2ORHF  !  22
 ZO1               -4.958663172963    0.365884034222    1.829528689545
 ZH2               -5.022238560734    0.988308923090    2.536227976268
 ZH3               -4.251051999477   -0.219782724749    2.046690676689
 FRAGNAME=H2ORHF  !  23
 ZO1               -2.610516101388   -5.217425476930   -3.503524448827
 ZH2               -2.197468062415   -4.517478340574   -3.983465880549
 ZH3               -3.532260608349   -5.016926052413   -3.470882470747
 FRAGNAME=H2ORHF  !  24
 ZO1               -7.621552163569   -1.376062854085   -1.491019516244
 ZH2               -7.986543869402   -1.289826430261   -0.624865495314
 ZH3               -8.006228648390   -2.149332764262   -1.871750526452
 FRAGNAME=H2ORHF  !  25
 ZO1               -7.510869166329    3.272828895385    1.090242038727
 ZH2               -6.762024827768    3.328234290943    0.518367181045
 ZH3               -8.272246652915    3.215093568935    0.535400251278
 FRAGNAME=H2ORHF  !  26
 ZO1                3.760091114183    3.861890110893   -3.965555955808
 ZH2                3.898993392603    3.792330174039   -4.896547914051
 ZH3                2.872572070131    4.159717606072   -3.845193238829
 FRAGNAME=H2ORHF  !  27
 ZO1                3.623806166612    6.453753183228   -2.439086817454
 ZH2                4.283456172563    6.026394767407   -2.961681409989
 ZH3                2.792393816397    6.094617673929   -2.704894349214
 FRAGNAME=H2ORHF  !  28
 ZO1               -3.324514521190   -2.464064385881    2.761124223033
 ZH2               -4.188132737346   -2.755980255372    2.516528319706
 ZH3               -2.712704073883   -2.965455346862    2.246174191600
 FRAGNAME=H2ORHF  !  29
 ZO1               -3.088191773037    3.038293735529    4.316617854553
 ZH2               -2.455883339883    3.659497808209    3.992318610759
 ZH3               -2.608409016963    2.259838042095    4.550484685065
 FRAGNAME=H2ORHF  !  30
 ZO1                0.171588179450    5.210410616948   -0.251208197660
 ZH2               -0.363576904182    5.095844476379    0.517785551833
 ZH3                1.028910761825    5.465169105928    0.050411689128
 FRAGNAME=H2ORHF  !  31
 ZO1                3.947402330868   -1.456395602068    2.424613545133
 ZH2                3.158628017830   -0.987010411703    2.204633818287
 ZH3                3.722341024301   -2.372905277784    2.439971822071
 FRAGNAME=H2ORHF  !  32
 ZO1               -1.019441638430   -3.289552575026   -4.958534087469
 ZH2               -1.171699677535   -2.395638931569   -5.220477481438
 ZH3               -0.336657794600   -3.623651158556   -5.518054250791
 FRAGNAME=H2ORHF  !  33
 ZO1                3.829956668245   -6.325228426725    4.045118974761
 ZH2                3.760892198372   -6.504102255709    4.969301157225
 ZH3                2.959528453825   -6.121099891407    3.742522347735
 FRAGNAME=H2ORHF  !  34
 ZO1               -2.583306831386   -5.214519205864    1.389194946669
 ZH2               -3.281590512099   -5.844534549366    1.468938424656
 ZH3               -2.082060128511   -5.460002323899    0.628032522677
 FRAGNAME=H2ORHF  !  35
 ZO1               -3.275125795563   -1.249566194976    5.427807830177
 ZH2               -4.114142280093   -1.083686600426    5.827074348765
 ZH3               -3.434952476402   -1.804404845060    4.681156667631
 FRAGNAME=H2ORHF  !  36
 ZO1                5.833961787245    3.051731606406    3.751477112779
 ZH2                6.583096417125    2.992878509079    3.180327330915
 ZH3                5.367322503004    2.235159859353    3.671873002384
 FRAGNAME=H2ORHF  !  37
 ZO1                1.843481700757    4.522457314187    2.430065991317
 ZH2                2.443559742903    4.993659748293    1.874410465390
 ZH3                2.137896338264    4.650740466203    3.317614248143
 FRAGNAME=H2ORHF  !  38
 ZO1               -5.701005292700    2.260861429813    3.419066624906
 ZH2               -6.282714023091    2.691975331578    2.813563354255
 ZH3               -4.938719847759    2.811314956094    3.501530373989
 FRAGNAME=H2ORHF  !  39
 ZO1               -1.555879378929    1.005759352237    5.811363200758
 ZH2               -1.842157432338    1.249683832894    6.677056089689
 ZH3               -1.947001511972    0.167798706469    5.622355562657
 FRAGNAME=H2ORHF  !  40
 ZO1               -0.830962155739    5.090169608310    2.711893340180
 ZH2               -0.054054559939    4.566540629639    2.597413060873
 ZH3               -0.638712295499    5.715701373137    3.392061302154
 FRAGNAME=H2ORHF  !  41
 ZO1                8.408758331909    2.915559577441   -2.528720376419
 ZH2                8.693696492336    3.726640759472   -2.918381787059
 ZH3                7.940280095238    2.442890291321   -3.198041182743
 FRAGNAME=H2ORHF  !  42
 ZO1                2.878578154398    6.322779700427    0.373118837309
 ZH2                2.732057541417    7.190334712808    0.714818214730
 ZH3                3.268597497004    6.429423834599   -0.479753014205
 FRAGNAME=H2ORHF  !  43
 ZO1               -6.374429124183   -0.437416214505    4.727164866316
 ZH2               -7.262581932036   -0.579821370876    5.013143563794
 ZH3               -6.357740047562    0.405893204567    4.303574082074
 FRAGNAME=H2ORHF  !  44
 ZO1               -6.430064378904   -3.133463602346    2.930750178297
 ZH2               -6.656573103436   -2.505044928831    3.597580158537
 ZH3               -6.839978622230   -2.841398219790    2.132285038489
 FRAGNAME=H2ORHF  !  45
 ZO1                0.409173160535   -2.514563165578   -8.413172508753
 ZH2                0.411951529261   -3.148053912263   -7.713486715987
 ZH3                0.143482383730   -2.973763592544   -9.193827255144
 FRAGNAME=H2ORHF  !  46
 ZO1                0.965235319064   -0.476429183207    5.960746845411
 ZH2                0.311482010757    0.202877146659    6.005779901625
 ZH3                1.773924891820   -0.058547833035    5.711197639513
 FRAGNAME=H2ORHF  !  47
 ZO1                0.034938686891    6.173561324828    5.523256674155
 ZH2                0.574333735842    6.823627705788    5.944380332438
 ZH3                0.433627048261    5.335970784533    5.697521218369
 FRAGNAME=H2ORHF  !  48
 ZO1               -0.842837936835   -3.070299064492    5.728922984194
 ZH2               -0.225938714131   -2.361252873638    5.815913226909
 ZH3               -1.692997796355   -2.717343768291    5.937559573054
 FRAGNAME=H2ORHF  !  49
 ZO1                3.429445044937    4.290057140074    4.991656248682
 ZH2                4.154799928118    3.699776088809    4.863957274489
 ZH3                3.752075447238    5.007435279872    5.513342631577
 FRAGNAME=H2ORHF  !  50
 ZO1                3.567039757711    0.993139959374    6.428719801627
 ZH2                4.356083120951    0.712070908627    5.993645999021
 ZH3                3.771002451810    1.053243665675    7.348320376866
 $END
